p cnf 200 1110
-101 -67 0
-101 -84 0
-101 -10 0
-101 -2 0
-101 -46 0
-101 23 0
-101 52 0
-101 26 0
-101 -51 0
-101 40 0
101 67 84 10 2 46 -23 -52 -26 51 -40 0
-102 48 0
-102 84 0
-102 -29 0
-102 -39 0
-102 -68 0
-102 25 0
-102 -81 0
-102 -14 0
-102 -30 0
-102 8 0
102 -48 -84 29 39 68 -25 81 14 30 -8 0
-103 83 0
-103 -40 0
-103 78 0
-103 60 0
-103 -84 0
-103 77 0
-103 -26 0
-103 -74 0
-103 23 0
-103 -73 0
103 -83 40 -78 -60 84 -77 26 74 -23 73 0
-104 43 0
-104 81 0
-104 10 0
-104 46 0
-104 99 0
-104 -25 0
-104 -24 0
-104 4 0
-104 39 0
-104 38 0
104 -43 -81 -10 -46 -99 25 24 -4 -39 -38 0
-105 -6 0
-105 8 0
-105 23 0
-105 29 0
-105 4 0
-105 -100 0
-105 -79 0
-105 -59 0
-105 34 0
-105 98 0
105 6 -8 -23 -29 -4 100 79 59 -34 -98 0
-106 -66 0
-106 91 0
-106 9 0
-106 10 0
-106 -86 0
-106 -74 0
-106 -80 0
-106 19 0
-106 72 0
-106 -38 0
106 66 -91 -9 -10 86 74 80 -19 -72 38 0
-107 50 0
-107 -66 0
-107 -87 0
-107 -49 0
-107 8 0
-107 -84 0
-107 86 0
-107 -32 0
-107 -37 0
-107 -2 0
107 -50 66 87 49 -8 84 -86 32 37 2 0
-108 79 0
-108 18 0
-108 20 0
-108 -72 0
-108 -36 0
-108 24 0
-108 -14 0
-108 -53 0
-108 71 0
-108 4 0
108 -79 -18 -20 72 36 -24 14 53 -71 -4 0
-109 -46 0
-109 15 0
-109 -55 0
-109 -80 0
-109 82 0
-109 -36 0
-109 67 0
-109 23 0
-109 -1 0
-109 89 0
109 46 -15 55 80 -82 36 -67 -23 1 -89 0
-110 68 0
-110 -92 0
-110 -76 0
-110 -44 0
-110 71 0
-110 39 0
-110 27 0
-110 -79 0
-110 42 0
-110 81 0
110 -68 92 76 44 -71 -39 -27 79 -42 -81 0
101 102 103 104 105 106 107 108 109 110 0
-111 5 0
-111 42 0
-111 89 0
-111 -72 0
-111 -17 0
-111 -10 0
-111 -30 0
-111 -100 0
-111 -3 0
-111 88 0
111 -5 -42 -89 72 17 10 30 100 3 -88 0
-112 84 0
-112 -56 0
-112 -36 0
-112 -45 0
-112 42 0
-112 -98 0
-112 25 0
-112 -26 0
-112 20 0
-112 -51 0
112 -84 56 36 45 -42 98 -25 26 -20 51 0
-113 -70 0
-113 -100 0
-113 -9 0
-113 -78 0
-113 10 0
-113 -91 0
-113 -89 0
-113 59 0
-113 -20 0
-113 -28 0
113 70 100 9 78 -10 91 89 -59 20 28 0
-114 -71 0
-114 -10 0
-114 -6 0
-114 49 0
-114 30 0
-114 -64 0
-114 5 0
-114 -2 0
-114 13 0
-114 14 0
114 71 10 6 -49 -30 64 -5 2 -13 -14 0
-115 -21 0
-115 67 0
-115 -33 0
-115 22 0
-115 11 0
-115 -38 0
-115 -59 0
-115 95 0
-115 63 0
-115 -79 0
115 21 -67 33 -22 -11 38 59 -95 -63 79 0
-116 44 0
-116 -26 0
-116 54 0
-116 8 0
-116 34 0
-116 -65 0
-116 82 0
-116 -84 0
-116 -29 0
-116 -5 0
116 -44 26 -54 -8 -34 65 -82 84 29 5 0
-117 -98 0
-117 -74 0
-117 1 0
-117 53 0
-117 -49 0
-117 96 0
-117 52 0
-117 -78 0
-117 92 0
-117 -6 0
117 98 74 -1 -53 49 -96 -52 78 -92 6 0
-118 63 0
-118 10 0
-118 -31 0
-118 -35 0
-118 -43 0
-118 -19 0
-118 -22 0
-118 -88 0
-118 81 0
-118 91 0
118 -63 -10 31 35 43 19 22 88 -81 -91 0
-119 -29 0
-119 -49 0
-119 45 0
-119 3 0
-119 -21 0
-119 -69 0
-119 -72 0
-119 22 0
-119 42 0
-119 26 0
119 29 49 -45 -3 21 69 72 -22 -42 -26 0
-120 -31 0
-120 89 0
-120 25 0
-120 -44 0
-120 84 0
-120 -78 0
-120 -93 0
-120 -41 0
-120 -28 0
-120 -67 0
120 31 -89 -25 44 -84 78 93 41 28 67 0
111 112 113 114 115 116 117 118 119 120 0
-121 -76 0
-121 -26 0
-121 52 0
-121 67 0
-121 83 0
-121 42 0
-121 50 0
-121 84 0
-121 80 0
-121 -73 0
121 76 26 -52 -67 -83 -42 -50 -84 -80 73 0
-122 -67 0
-122 -87 0
-122 -86 0
-122 -69 0
-122 -38 0
-122 -95 0
-122 58 0
-122 1 0
-122 -76 0
-122 -50 0
122 67 87 86 69 38 95 -58 -1 76 50 0
-123 91 0
-123 -59 0
-123 82 0
-123 13 0
-123 95 0
-123 -48 0
-123 22 0
-123 -50 0
-123 97 0
-123 53 0
123 -91 59 -82 -13 -95 48 -22 50 -97 -53 0
-124 9 0
-124 64 0
-124 67 0
-124 -33 0
-124 44 0
-124 -43 0
-124 11 0
-124 -55 0
-124 61 0
-124 -7 0
124 -9 -64 -67 33 -44 43 -11 55 -61 7 0
-125 -47 0
-125 58 0
-125 45 0
-125 64 0
-125 14 0
-125 49 0
-125 89 0
-125 72 0
-125 23 0
-125 -66 0
125 47 -58 -45 -64 -14 -49 -89 -72 -23 66 0
-126 6 0
-126 29 0
-126 -62 0
-126 -17 0
-126 -79 0
-126 -10 0
-126 -88 0
-126 96 0
-126 91 0
-126 18 0
126 -6 -29 62 17 79 10 88 -96 -91 -18 0
-127 -49 0
-127 -37 0
-127 -62 0
-127 58 0
-127 -25 0
-127 -1 0
-127 26 0
-127 22 0
-127 86 0
-127 40 0
127 49 37 62 -58 25 1 -26 -22 -86 -40 0
-128 39 0
-128 17 0
-128 -94 0
-128 4 0
-128 -85 0
-128 59 0
-128 18 0
-128 69 0
-128 -82 0
-128 19 0
128 -39 -17 94 -4 85 -59 -18 -69 82 -19 0
-129 -31 0
-129 8 0
-129 83 0
-129 3 0
-129 41 0
-129 -90 0
-129 33 0
-129 93 0
-129 -68 0
-129 96 0
129 31 -8 -83 -3 -41 90 -33 -93 68 -96 0
-130 34 0
-130 1 0
-130 -49 0
-130 18 0
-130 63 0
-130 -87 0
-130 24 0
-130 -73 0
-130 17 0
-130 52 0
130 -34 -1 49 -18 -63 87 -24 73 -17 -52 0
121 122 123 124 125 126 127 128 129 130 0
-131 23 0
-131 75 0
-131 55 0
-131 10 0
-131 40 0
-131 -1 0
-131 -91 0
-131 -92 0
-131 -96 0
-131 94 0
131 -23 -75 -55 -10 -40 1 91 92 96 -94 0
-132 -55 0
-132 29 0
-132 -59 0
-132 72 0
-132 62 0
-132 13 0
-132 65 0
-132 -2 0
-132 -36 0
-132 19 0
132 55 -29 59 -72 -62 -13 -65 2 36 -19 0
-133 54 0
-133 -79 0
-133 -3 0
-133 -97 0
-133 51 0
-133 30 0
-133 89 0
-133 -68 0
-133 -48 0
-133 49 0
133 -54 79 3 97 -51 -30 -89 68 48 -49 0
-134 -54 0
-134 -78 0
-134 34 0
-134 79 0
-134 -92 0
-134 62 0
-134 8 0
-134 72 0
-134 -19 0
-134 59 0
134 54 78 -34 -79 92 -62 -8 -72 19 -59 0
-135 -4 0
-135 66 0
-135 67 0
-135 58 0
-135 77 0
-135 63 0
-135 7 0
-135 43 0
-135 -60 0
-135 -11 0
135 4 -66 -67 -58 -77 -63 -7 -43 60 11 0
-136 85 0
-136 -9 0
-136 -64 0
-136 45 0
-136 39 0
-136 -36 0
-136 75 0
-136 78 0
-136 93 0
-136 87 0
136 -85 9 64 -45 -39 36 -75 -78 -93 -87 0
-137 -72 0
-137 43 0
-137 53 0
-137 -80 0
-137 -33 0
-137 61 0
-137 89 0
-137 88 0
-137 -68 0
-137 16 0
137 72 -43 -53 80 33 -61 -89 -88 68 -16 0
-138 46 0
-138 -54 0
-138 -48 0
-138 -94 0
-138 -16 0
-138 3 0
-138 -47 0
-138 -15 0
-138 -58 0
-138 60 0
138 -46 54 48 94 16 -3 47 15 58 -60 0
-139 82 0
-139 5 0
-139 -12 0
-139 -29 0
-139 77 0
-139 -2 0
-139 -4 0
-139 -33 0
-139 -10 0
-139 55 0
139 -82 -5 12 29 -77 2 4 33 10 -55 0
-140 31 0
-140 13 0
-140 24 0
-140 89 0
-140 -7 0
-140 32 0
-140 75 0
-140 -15 0
-140 29 0
-140 -46 0
140 -31 -13 -24 -89 7 -32 -75 15 -29 46 0
131 132 133 134 135 136 137 138 139 140 0
-141 6 0
-141 75 0
-141 -7 0
-141 60 0
-141 81 0
-141 -20 0
-141 35 0
-141 51 0
-141 39 0
-141 -33 0
141 -6 -75 7 -60 -81 20 -35 -51 -39 33 0
-142 -16 0
-142 94 0
-142 97 0
-142 -61 0
-142 38 0
-142 93 0
-142 -73 0
-142 59 0
-142 -95 0
-142 35 0
142 16 -94 -97 61 -38 -93 73 -59 95 -35 0
-143 -94 0
-143 97 0
-143 76 0
-143 -3 0
-143 66 0
-143 99 0
-143 -67 0
-143 16 0
-143 79 0
-143 54 0
143 94 -97 -76 3 -66 -99 67 -16 -79 -54 0
-144 -92 0
-144 71 0
-144 -40 0
-144 75 0
-144 -73 0
-144 -25 0
-144 -67 0
-144 44 0
-144 -20 0
-144 4 0
144 92 -71 40 -75 73 25 67 -44 20 -4 0
-145 94 0
-145 35 0
-145 21 0
-145 -7 0
-145 87 0
-145 72 0
-145 26 0
-145 -15 0
-145 -66 0
-145 -81 0
145 -94 -35 -21 7 -87 -72 -26 15 66 81 0
-146 32 0
-146 58 0
-146 99 0
-146 33 0
-146 22 0
-146 82 0
-146 -46 0
-146 83 0
-146 38 0
-146 -4 0
146 -32 -58 -99 -33 -22 -82 46 -83 -38 4 0
-147 65 0
-147 -94 0
-147 -37 0
-147 31 0
-147 -50 0
-147 -4 0
-147 57 0
-147 83 0
-147 95 0
-147 88 0
147 -65 94 37 -31 50 4 -57 -83 -95 -88 0
-148 42 0
-148 32 0
-148 -4 0
-148 -18 0
-148 87 0
-148 -70 0
-148 37 0
-148 40 0
-148 -8 0
-148 -49 0
148 -42 -32 4 18 -87 70 -37 -40 8 49 0
-149 -49 0
-149 28 0
-149 -79 0
-149 96 0
-149 4 0
-149 82 0
-149 84 0
-149 35 0
-149 70 0
-149 -32 0
149 49 -28 79 -96 -4 -82 -84 -35 -70 32 0
-150 -16 0
-150 71 0
-150 50 0
-150 -30 0
-150 -67 0
-150 -94 0
-150 48 0
-150 -17 0
-150 -59 0
-150 53 0
150 16 -71 -50 30 67 94 -48 17 59 -53 0
141 142 143 144 145 146 147 148 149 150 0
-151 -19 0
-151 -48 0
-151 -79 0
-151 -59 0
-151 40 0
-151 44 0
-151 34 0
-151 65 0
-151 -31 0
-151 7 0
151 19 48 79 59 -40 -44 -34 -65 31 -7 0
-152 1 0
-152 98 0
-152 -77 0
-152 58 0
-152 65 0
-152 -11 0
-152 42 0
-152 -9 0
-152 99 0
-152 -94 0
152 -1 -98 77 -58 -65 11 -42 9 -99 94 0
-153 -51 0
-153 -86 0
-153 -21 0
-153 58 0
-153 11 0
-153 85 0
-153 -40 0
-153 95 0
-153 -96 0
-153 39 0
153 51 86 21 -58 -11 -85 40 -95 96 -39 0
-154 -66 0
-154 -12 0
-154 -52 0
-154 -4 0
-154 -15 0
-154 94 0
-154 -74 0
-154 -82 0
-154 2 0
-154 -59 0
154 66 12 52 4 15 -94 74 82 -2 59 0
-155 -24 0
-155 9 0
-155 -3 0
-155 -81 0
-155 96 0
-155 -23 0
-155 -100 0
-155 -71 0
-155 57 0
-155 43 0
155 24 -9 3 81 -96 23 100 71 -57 -43 0
-156 77 0
-156 33 0
-156 -56 0
-156 -48 0
-156 -30 0
-156 61 0
-156 18 0
-156 41 0
-156 -89 0
-156 -6 0
156 -77 -33 56 48 30 -61 -18 -41 89 6 0
-157 -14 0
-157 -32 0
-157 34 0
-157 -37 0
-157 41 0
-157 100 0
-157 65 0
-157 7 0
-157 -87 0
-157 52 0
157 14 32 -34 37 -41 -100 -65 -7 87 -52 0
-158 -84 0
-158 -80 0
-158 -8 0
-158 100 0
-158 -31 0
-158 44 0
-158 6 0
-158 -97 0
-158 1 0
-158 77 0
158 84 80 8 -100 31 -44 -6 97 -1 -77 0
-159 31 0
-159 -10 0
-159 50 0
-159 -6 0
-159 -33 0
-159 7 0
-159 28 0
-159 91 0
-159 64 0
-159 90 0
159 -31 10 -50 6 33 -7 -28 -91 -64 -90 0
-160 -56 0
-160 -39 0
-160 -40 0
-160 6 0
-160 32 0
-160 4 0
-160 -29 0
-160 -10 0
-160 76 0
-160 -51 0
160 56 39 40 -6 -32 -4 29 10 -76 51 0
151 152 153 154 155 156 157 158 159 160 0
-161 -28 0
-161 80 0
-161 -90 0
-161 -88 0
-161 -34 0
-161 70 0
-161 86 0
-161 -74 0
-161 -9 0
-161 -68 0
161 28 -80 90 88 34 -70 -86 74 9 68 0
-162 -11 0
-162 99 0
-162 -78 0
-162 87 0
-162 -40 0
-162 -52 0
-162 53 0
-162 -32 0
-162 7 0
-162 80 0
162 11 -99 78 -87 40 52 -53 32 -7 -80 0
-163 -33 0
-163 -84 0
-163 -62 0
-163 -92 0
-163 -85 0
-163 38 0
-163 -95 0
-163 -87 0
-163 23 0
-163 -34 0
163 33 84 62 92 85 -38 95 87 -23 34 0
-164 73 0
-164 -69 0
-164 61 0
-164 -2 0
-164 -91 0
-164 57 0
-164 86 0
-164 5 0
-164 -78 0
-164 8 0
164 -73 69 -61 2 91 -57 -86 -5 78 -8 0
-165 -7 0
-165 -81 0
-165 28 0
-165 -57 0
-165 44 0
-165 -2 0
-165 -56 0
-165 -29 0
-165 74 0
-165 34 0
165 7 81 -28 57 -44 2 56 29 -74 -34 0
-166 -30 0
-166 -74 0
-166 23 0
-166 -89 0
-166 17 0
-166 50 0
-166 51 0
-166 12 0
-166 -61 0
-166 55 0
166 30 74 -23 89 -17 -50 -51 -12 61 -55 0
-167 -19 0
-167 64 0
-167 76 0
-167 9 0
-167 54 0
-167 -25 0
-167 -22 0
-167 28 0
-167 -30 0
-167 88 0
167 19 -64 -76 -9 -54 25 22 -28 30 -88 0
-168 12 0
-168 41 0
-168 73 0
-168 -15 0
-168 58 0
-168 -42 0
-168 -50 0
-168 86 0
-168 22 0
-168 25 0
168 -12 -41 -73 15 -58 42 50 -86 -22 -25 0
-169 -18 0
-169 -90 0
-169 46 0
-169 31 0
-169 61 0
-169 -27 0
-169 38 0
-169 74 0
-169 100 0
-169 -91 0
169 18 90 -46 -31 -61 27 -38 -74 -100 91 0
-170 -24 0
-170 69 0
-170 91 0
-170 -85 0
-170 -93 0
-170 80 0
-170 -42 0
-170 -17 0
-170 67 0
-170 -74 0
170 24 -69 -91 85 93 -80 42 17 -67 74 0
161 162 163 164 165 166 167 168 169 170 0
-171 -71 0
-171 43 0
-171 -48 0
-171 58 0
-171 -18 0
-171 -5 0
-171 -23 0
-171 64 0
-171 -73 0
-171 -55 0
171 71 -43 48 -58 18 5 23 -64 73 55 0
-172 50 0
-172 -7 0
-172 -16 0
-172 27 0
-172 -84 0
-172 79 0
-172 88 0
-172 57 0
-172 -91 0
-172 -30 0
172 -50 7 16 -27 84 -79 -88 -57 91 30 0
-173 25 0
-173 100 0
-173 53 0
-173 34 0
-173 -68 0
-173 66 0
-173 46 0
-173 -17 0
-173 -63 0
-173 -90 0
173 -25 -100 -53 -34 68 -66 -46 17 63 90 0
-174 84 0
-174 64 0
-174 -5 0
-174 -38 0
-174 -37 0
-174 -94 0
-174 -73 0
-174 -70 0
-174 -29 0
-174 -32 0
174 -84 -64 5 38 37 94 73 70 29 32 0
-175 28 0
-175 -49 0
-175 75 0
-175 93 0
-175 -61 0
-175 -45 0
-175 78 0
-175 -85 0
-175 -6 0
-175 -33 0
175 -28 49 -75 -93 61 45 -78 85 6 33 0
-176 58 0
-176 -63 0
-176 26 0
-176 -52 0
-176 38 0
-176 1 0
-176 -71 0
-176 -56 0
-176 -80 0
-176 -24 0
176 -58 63 -26 52 -38 -1 71 56 80 24 0
-177 -95 0
-177 2 0
-177 26 0
-177 -18 0
-177 15 0
-177 -10 0
-177 57 0
-177 -5 0
-177 64 0
-177 92 0
177 95 -2 -26 18 -15 10 -57 5 -64 -92 0
-178 69 0
-178 -19 0
-178 3 0
-178 -8 0
-178 -6 0
-178 2 0
-178 -91 0
-178 75 0
-178 31 0
-178 98 0
178 -69 19 -3 8 6 -2 91 -75 -31 -98 0
-179 -64 0
-179 -41 0
-179 -22 0
-179 12 0
-179 -59 0
-179 4 0
-179 -80 0
-179 19 0
-179 -1 0
-179 -79 0
179 64 41 22 -12 59 -4 80 -19 1 79 0
-180 32 0
-180 42 0
-180 17 0
-180 -30 0
-180 65 0
-180 27 0
-180 -5 0
-180 50 0
-180 -6 0
-180 -7 0
180 -32 -42 -17 30 -65 -27 5 -50 6 7 0
171 172 173 174 175 176 177 178 179 180 0
-181 -29 0
-181 -8 0
-181 -58 0
-181 -65 0
-181 27 0
-181 -75 0
-181 39 0
-181 64 0
-181 5 0
-181 -82 0
181 29 8 58 65 -27 75 -39 -64 -5 82 0
-182 -1 0
-182 -92 0
-182 32 0
-182 -22 0
-182 38 0
-182 61 0
-182 83 0
-182 8 0
-182 -75 0
-182 -10 0
182 1 92 -32 22 -38 -61 -83 -8 75 10 0
-183 -27 0
-183 -33 0
-183 -62 0
-183 17 0
-183 -84 0
-183 2 0
-183 -3 0
-183 -82 0
-183 -47 0
-183 83 0
183 27 33 62 -17 84 -2 3 82 47 -83 0
-184 -80 0
-184 21 0
-184 52 0
-184 -45 0
-184 34 0
-184 19 0
-184 -23 0
-184 82 0
-184 -79 0
-184 2 0
184 80 -21 -52 45 -34 -19 23 -82 79 -2 0
-185 -96 0
-185 41 0
-185 64 0
-185 31 0
-185 9 0
-185 -36 0
-185 70 0
-185 -12 0
-185 52 0
-185 28 0
185 96 -41 -64 -31 -9 36 -70 12 -52 -28 0
-186 -86 0
-186 -32 0
-186 -31 0
-186 -57 0
-186 11 0
-186 3 0
-186 -89 0
-186 -99 0
-186 92 0
-186 13 0
186 86 32 31 57 -11 -3 89 99 -92 -13 0
-187 76 0
-187 30 0
-187 88 0
-187 -26 0
-187 47 0
-187 -31 0
-187 -52 0
-187 80 0
-187 -75 0
-187 -2 0
187 -76 -30 -88 26 -47 31 52 -80 75 2 0
-188 49 0
-188 70 0
-188 59 0
-188 85 0
-188 96 0
-188 100 0
-188 41 0
-188 87 0
-188 -7 0
-188 -78 0
188 -49 -70 -59 -85 -96 -100 -41 -87 7 78 0
-189 44 0
-189 -68 0
-189 59 0
-189 -88 0
-189 2 0
-189 -77 0
-189 -13 0
-189 53 0
-189 -58 0
-189 -90 0
189 -44 68 -59 88 -2 77 13 -53 58 90 0
-190 95 0
-190 -22 0
-190 -60 0
-190 -53 0
-190 -78 0
-190 -29 0
-190 97 0
-190 -6 0
-190 39 0
-190 76 0
190 -95 22 60 53 78 29 -97 6 -39 -76 0
181 182 183 184 185 186 187 188 189 190 0
-191 37 0
-191 -66 0
-191 47 0
-191 60 0
-191 69 0
-191 31 0
-191 -33 0
-191 -7 0
-191 4 0
-191 91 0
191 -37 66 -47 -60 -69 -31 33 7 -4 -91 0
-192 -46 0
-192 57 0
-192 -47 0
-192 -96 0
-192 -36 0
-192 19 0
-192 -45 0
-192 -58 0
-192 -11 0
-192 -59 0
192 46 -57 47 96 36 -19 45 58 11 59 0
-193 -55 0
-193 -48 0
-193 -95 0
-193 84 0
-193 -29 0
-193 83 0
-193 -46 0
-193 -42 0
-193 -64 0
-193 -100 0
193 55 48 95 -84 29 -83 46 42 64 100 0
-194 45 0
-194 48 0
-194 -84 0
-194 20 0
-194 -54 0
-194 -27 0
-194 93 0
-194 -99 0
-194 -64 0
-194 66 0
194 -45 -48 84 -20 54 27 -93 99 64 -66 0
-195 -56 0
-195 68 0
-195 71 0
-195 42 0
-195 45 0
-195 -65 0
-195 35 0
-195 16 0
-195 100 0
-195 52 0
195 56 -68 -71 -42 -45 65 -35 -16 -100 -52 0
-196 -2 0
-196 -92 0
-196 -21 0
-196 -58 0
-196 -85 0
-196 -30 0
-196 25 0
-196 24 0
-196 -69 0
-196 -48 0
196 2 92 21 58 85 30 -25 -24 69 48 0
-197 20 0
-197 -46 0
-197 -55 0
-197 -64 0
-197 47 0
-197 82 0
-197 -78 0
-197 45 0
-197 -9 0
-197 -8 0
197 -20 46 55 64 -47 -82 78 -45 9 8 0
-198 53 0
-198 47 0
-198 60 0
-198 -69 0
-198 71 0
-198 -89 0
-198 95 0
-198 61 0
-198 48 0
-198 76 0
198 -53 -47 -60 69 -71 89 -95 -61 -48 -76 0
-199 -14 0
-199 55 0
-199 -87 0
-199 31 0
-199 75 0
-199 37 0
-199 -80 0
-199 -66 0
-199 93 0
-199 -54 0
199 14 -55 87 -31 -75 -37 80 66 -93 54 0
-200 37 0
-200 -93 0
-200 20 0
-200 66 0
-200 -67 0
-200 36 0
-200 2 0
-200 -33 0
-200 39 0
-200 -10 0
200 -37 93 -20 -66 67 -36 -2 33 -39 10 0
191 192 193 194 195 196 197 198 199 200 0
